-1 4 5 1 3 -1 9 8 3 -1 10 3 2 10 -1 
5 4 0 8 6 7 3 1 4 1 1 6 8 9 -1 
8 9 4 -1 7 6 1 7 0 -1 3 3 4 -1 -1 
3 1 4 1 7 6 0 4 10 -1 6 10 3 0 -1 
2 2 1 1 7 2 1 0 8 4 8 2 1 5 -1 
8 5 0 1 2 -1 8 3 6 1 0 9 7 0 -1 
6 8 -1 9 1 9 1 1 9 4 10 2 6 -1 -1 
7 1 10 6 -1 6 0 8 -1 5 2 8 8 5 -1 
3 6 5 10 0 6 0 -1 10 6 10 5 5 3 -1 
3 0 5 2 8 2 5 1 1 5 1 1 8 6 -1 
9 7 2 5 9 10 3 8 5 2 3 3 1 4 -1 
-1 6 0 2 0 7 9 2 9 10 4 7 10 10 -1 
3 3 8 8 6 4 5 -1 1 8 8 2 3 0 -1 
8 9 8 3 6 1 4 4 1 10 10 6 7 8 -1 
2 0 9 5 9 1 1 5 3 5 3 3 1 2 -1 
